0000000000000000
0010000000000000
0111111000000000
0111111000000000
0111111000000000
0011111000000000
0000011000000000
0000011000000000
0000011000000000
0000011000000000
0000011000000000
0000011000000000
0000011000000000
0000011000000000
0000011000000000
0000000000000000
